;; Mutation-Based Equivalence Benchmark
;; Source:     AutomatArk / instance08195.smt2
;; Mutations:  intersect_no_alnum5, intersect_max_len_10, literal_char_inc
;; Status:     sat
;;
;; Original regex vs mutated regex
;; Equivalence check: unsat ⟺ L(R1) = L(R2)

(set-info :smt-lib-version 2.6)
(set-info :category "mutation")
(set-info :status sat)
(set-logic QF_S)

(declare-const x String)

;; R1: original
;; R2: mutated (intersect_no_alnum5, intersect_max_len_10, literal_char_inc)
(assert
  (str.in_re x
    (re.union (re.inter (re.++ (str.to_re "/toolbar/supremetb") (re.+ (re.union (str.to_re " ") (str.to_re "\u{9}") (str.to_re "\u{a}") (str.to_re "\u{c}") (str.to_re "\u{d}"))) (str.to_re "wjpropqmlpohj/lo") (re.+ (re.union (str.to_re " ") (str.to_re "\u{9}") (str.to_re "\u{a}") (str.to_re "\u{c}") (str.to_re "\u{d}"))) (str.to_re "resultsmaster.com\u{13}\u{a}")) (re.comp (re.++ (str.to_re "/toolbar/supremetc") (re.+ (re.union (str.to_re " ") (str.to_re "\u{9}") (str.to_re "\u{a}") (str.to_re "\u{c}") (str.to_re "\u{d}"))) (str.to_re "wjpropqmlpohj/lo") (re.inter (re.+ (re.union (str.to_re " ") (str.to_re "\u{9}") (str.to_re "\u{a}") (str.to_re "\u{c}") (str.to_re "\u{d}"))) ((_ re.loop 0 10) re.allchar)) (re.inter (str.to_re "resultsmaster.com\u{13}\u{a}") (re.comp (re.++ re.all ((_ re.loop 5 5) (re.union (re.range "a" "z") (re.range "A" "Z") (re.range "0" "9"))) re.all)))))) (re.inter (re.comp (re.++ (str.to_re "/toolbar/supremetb") (re.+ (re.union (str.to_re " ") (str.to_re "\u{9}") (str.to_re "\u{a}") (str.to_re "\u{c}") (str.to_re "\u{d}"))) (str.to_re "wjpropqmlpohj/lo") (re.+ (re.union (str.to_re " ") (str.to_re "\u{9}") (str.to_re "\u{a}") (str.to_re "\u{c}") (str.to_re "\u{d}"))) (str.to_re "resultsmaster.com\u{13}\u{a}"))) (re.++ (str.to_re "/toolbar/supremetc") (re.+ (re.union (str.to_re " ") (str.to_re "\u{9}") (str.to_re "\u{a}") (str.to_re "\u{c}") (str.to_re "\u{d}"))) (str.to_re "wjpropqmlpohj/lo") (re.inter (re.+ (re.union (str.to_re " ") (str.to_re "\u{9}") (str.to_re "\u{a}") (str.to_re "\u{c}") (str.to_re "\u{d}"))) ((_ re.loop 0 10) re.allchar)) (re.inter (str.to_re "resultsmaster.com\u{13}\u{a}") (re.comp (re.++ re.all ((_ re.loop 5 5) (re.union (re.range "a" "z") (re.range "A" "Z") (re.range "0" "9"))) re.all))))))))

(check-sat)
(exit)
